3040645442289087849508,12,1,2,010,8,1,2,08,6,1,2,08,6,1,2,012,7,1,2,02,2,1,2,03,1,1,2,01,12,1,2,07,6,1,2,04,4,1,2,013,14,1,2,04,11,1,2,011,15,1,2,06,9,1,2,014,4,1,2,04,12,1,2,06,7,1,2,011,10,1,2,09,3,1,2,014,2,1,2,07,1,1,2,03,10,1,2,09,2,1,2,09,9,1,2,02,15,1,2,08,13,1,2,010,1,1,2,05,8,1,2,09,6,1,2,05,11,1,2,06,7,1,2,01,7,1,2,02,8,1,2,03,10,1,2,06,9,1,2,02,9,1,2,08,14,1,2,04,7,1,2,05,14,1,2,015,15,1,2,05,13,1,2,05,9,1,2,06,10,1,2,05,5,1,2,05,2,1,2,07,6,1,2,010,6,1,2,01,2,1,2,02,8,1,2,06,8,1,2,0